724400
724400
724400
724400
724400
723348
723348
723348
723348
723348
723348
723348
695414
685768
685768
685768
685768
685768
685768
674986
674986
646779
646779
646779
646779
646779
646779
646779
646779
634729
634729
630371
630371
630371
630371
625617
614203
614203
614203
614203
614203
614203
614203
614203
614203
614203
614203
614203
608175
608175
608175
608175
608175
608175
607176
607176
607176
605947
605947
605947
605947
605947
605947
605947
605947
605947
605947
605947
605947
596401
596401
585762
585762
585446
585446
585446
585446
585446
575442
575442
575442
575442
575442
575442
575442
575442
571970
571970
571970
570256
570256
570256
570256
570256
570256
570256
559100
558894
558894
558894
